c ren 1 -> 1
c ren 2 -> 2
c ren 4 -> 3
c ren 7 -> 4
c ren 9 -> 5
c ren 10 -> 6
c ren 12 -> 7
c ren 18 -> 8
c ren 19 -> 9
c ren 23 -> 10
c ren 24 -> 11
c ren 26 -> 12
c ren 29 -> 13
c ren 32 -> 14
c ren 38 -> 15
c ren 43 -> 16
c ren 44 -> 17
c ren 46 -> 18
c ren 49 -> 19
c ren 52 -> 20
c ren 55 -> 21
c ren 56 -> 22
c ren 58 -> 23
c ren 60 -> 24
c ren 63 -> 25
c ren 64 -> 26
c ren 67 -> 27
c ren 68 -> 28
c ren 71 -> 29
c ren 74 -> 30
c ren 75 -> 31
c ren 132 -> 32
c ren 134 -> 33
c ren 138 -> 34
c ren 149 -> 35
c ren 155 -> 36
c ren 163 -> 37
p cnf 37 115
a 1 2 3 5 6 7 8 10 11 12 13 14 15 17 18 19 21 22 23 25 27 28 30 34 0
d 9 1 5 0
d 32 34 0
d 33 8 10 0
d 35 15 17 0
d 36 21 25 0
d 37 27 30 0
e 4 16 20 24 26 29 31 0
-1 -2 -4 0
-1 2 3 4 0
1 2 3 -4 0
-2 -9 11 -12 16 -20 -24 -26 -29 -31 0
-4 -5 6 7 -8 -9 -10 11 12 13 14 -15 -16 0
-4 -5 6 7 -8 -9 10 11 12 -14 -15 -16 0
-4 -5 6 7 -8 -9 10 11 12 -13 -15 -16 0
-4 -5 6 7 -8 -9 10 -11 15 -16 0
-4 -5 6 7 8 9 10 -12 15 -16 0
2 3 -7 16 -20 -22 -24 -26 -29 -31 34 -35 0
-4 -5 6 7 8 9 -10 11 12 13 14 -15 -16 0
-4 -5 6 7 8 9 10 11 12 -14 -15 -16 0
-4 5 -6 8 9 10 -13 15 -16 0
-4 -5 6 7 8 9 10 11 12 -13 -15 -16 0
-4 -5 6 7 8 9 10 -11 15 -16 0
-11 16 18 19 -20 22 23 -24 -26 -29 -31 -33 34 0
-6 -9 11 13 -14 16 -20 -24 -26 -29 -31 0
-7 30 31 0
-7 -9 11 13 -14 16 -20 -24 -26 -29 -31 0
-12 16 18 19 -20 22 23 -24 -26 -29 -31 -33 34 0
-7 13 14 16 18 19 -20 22 23 -24 -26 -29 -31 34 -37 0
-6 11 12 13 14 16 18 19 -20 -24 -26 -29 -31 34 -36 0
4 16 0
-11 16 18 19 -20 -24 -26 -29 -31 -32 -33 0
-14 16 18 19 -20 22 23 -24 -26 -29 -31 -33 34 0
-4 5 -6 8 9 10 -12 15 -16 0
-12 16 18 19 -20 -24 -26 -29 -31 -32 -33 0
-4 5 -6 -8 -9 -10 11 12 13 14 15 -16 0
2 3 6 7 11 12 13 14 16 18 19 -20 22 23 -24 -26 -28 -29 -31 34 37 0
-11 30 31 0
-12 13 14 16 18 19 -20 22 23 -24 -26 -29 -31 34 -37 0
6 7 11 12 -30 31 0
-4 5 -6 -8 -9 10 -12 15 -16 0
-6 30 31 0
2 3 -12 16 -20 -22 -24 -26 -29 -31 34 -35 0
-4 5 -6 -8 -9 10 -14 15 -16 0
-13 17 20 0
2 3 -13 16 -20 -22 -24 -26 -29 -31 34 -35 0
-14 17 20 0
17 -18 20 0
2 3 16 -18 -20 -22 -24 -26 -29 -31 34 -35 0
2 3 6 7 11 12 13 14 16 18 19 -20 -24 -26 -29 -31 32 -34 0
-21 22 -23 24 0
2 3 16 -19 -20 -22 -24 -26 -29 -31 34 -35 0
-7 11 12 13 14 16 18 19 -20 -24 -26 -29 -31 34 -36 0
21 23 24 0
-7 -9 11 13 16 18 -19 -20 -24 -26 -29 -31 0
-14 16 18 19 -20 -24 -26 -29 -31 -32 -33 0
-2 13 14 16 18 19 -20 22 23 -24 -26 -29 -31 34 -37 0
2 3 -6 16 -20 -22 -24 -26 -29 -31 34 -35 0
-9 -25 26 0
9 25 26 0
-11 13 14 16 18 19 -20 22 23 -24 -26 -29 -31 34 -37 0
2 3 -27 -28 29 0
2 3 -11 16 -20 -22 -24 -26 -29 -31 34 -35 0
-13 16 18 19 -20 -24 -26 -29 -31 -32 -33 0
-6 -9 11 13 16 18 -19 -20 -24 -26 -29 -31 0
2 3 -14 16 -20 -22 -24 -26 -29 -31 34 -35 0
-2 27 29 0
-4 -5 6 7 -8 -9 10 -12 15 -16 0
-4 5 -6 -8 -9 10 -13 15 -16 0
-2 -9 11 13 16 18 -19 -20 -24 -26 -29 -31 0
1 -3 4 0
-2 -9 11 13 -14 16 -20 -24 -26 -29 -31 0
-12 30 31 0
-6 13 14 16 18 19 -20 22 23 -24 -26 -29 -31 34 -37 0
2 3 6 7 11 12 13 14 16 18 19 -20 -22 -24 -26 -29 -31 34 35 0
-6 16 18 19 -20 22 23 -24 -26 -29 -31 -33 34 0
-4 5 -6 -8 -9 10 -11 15 -16 0
2 3 6 7 11 12 13 14 16 18 19 -20 22 -23 -24 -26 -29 -31 34 36 0
-4 5 -6 8 9 10 -11 15 -16 0
2 3 6 7 11 12 13 14 16 18 19 -20 22 23 -24 -26 28 -29 -31 33 34 0
-4 5 -6 8 9 10 -14 15 -16 0
-2 16 18 19 -20 -24 -26 -29 -31 -32 -33 0
-7 16 18 19 -20 22 23 -24 -26 -29 -31 -33 34 0
-6 16 18 19 -20 -24 -26 -29 -31 -32 -33 0
2 3 6 7 9 11 13 16 18 -19 -20 -24 -26 -29 -31 0
16 18 19 -20 22 23 -24 -26 -28 -29 -31 -33 34 0
-4 5 -7 -8 -9 10 -14 15 -16 0
-4 5 -7 -8 -9 10 -12 15 -16 0
-4 5 -7 -8 -9 -10 11 12 13 14 15 -16 0
-4 5 -7 -8 -9 10 -11 15 -16 0
-7 16 18 19 -20 -24 -26 -29 -31 -32 -33 0
-7 -9 11 -12 16 -20 -24 -26 -29 -31 0
21 -22 24 0
13 14 -17 18 19 20 0
-4 5 -7 8 9 10 -12 15 -16 0
-4 5 -7 -8 -9 10 -13 15 -16 0
-4 5 -7 8 9 10 -11 15 -16 0
-4 5 -7 8 9 10 -14 15 -16 0
-4 5 -7 8 9 10 -13 15 -16 0
-4 5 -7 8 9 -10 11 12 13 14 15 -16 0
-3 -9 11 -12 16 -20 -24 -26 -29 -31 0
2 3 6 7 9 11 13 -14 16 -20 -24 -26 -29 -31 0
-2 16 18 19 -20 22 23 -24 -26 -29 -31 -33 34 0
13 14 16 18 19 -20 22 23 -24 -26 28 -29 -31 34 -37 0
-3 16 18 19 -20 22 23 -24 -26 -29 -31 -33 34 0
-3 16 18 19 -20 -24 -26 -29 -31 -32 -33 0
-3 -9 11 13 16 18 -19 -20 -24 -26 -29 -31 0
-3 -9 11 13 -14 16 -20 -24 -26 -29 -31 0
-3 11 12 13 14 16 18 19 -20 -24 -26 -29 -31 34 -36 0
-4 5 -6 8 9 -10 11 12 13 14 15 -16 0
17 -19 20 0
1 -2 4 0
-2 11 12 13 14 16 18 19 -20 -24 -26 -29 -31 34 -36 0
-1 -3 -4 0
2 3 6 7 9 11 -12 16 -20 -24 -26 -29 -31 0
11 12 13 14 16 18 19 -20 23 -24 -26 -29 -31 34 -36 0
11 12 13 14 16 18 19 -20 -22 -24 -26 -29 -31 34 -36 0
-3 27 29 0
-3 13 14 16 18 19 -20 22 23 -24 -26 -29 -31 34 -37 0
-6 -9 11 -12 16 -20 -24 -26 -29 -31 0
-13 16 18 19 -20 22 23 -24 -26 -29 -31 -33 34 0
27 28 29 0
2 3 6 7 11 12 13 14 16 18 19 -20 -24 -26 -29 -31 33 -34 0
